objective value:                     3.39607760564811
h-1,33                                           0.05 	(obj:0)
h-1,34                                           0.05 	(obj:0)
h-1,35                                           0.05 	(obj:0)
h-1,36                                           0.05 	(obj:0)
h-1,37                                           0.05 	(obj:0)
h-1,38                                           0.05 	(obj:0)
h-1,39                                           0.05 	(obj:0)
h-1,40                                           0.05 	(obj:0)
h-1,41                                           0.05 	(obj:0)
h-1,43                                           0.05 	(obj:0)
h-1,44                                           0.05 	(obj:0)
h-1,45                                           0.05 	(obj:0)
h-1,46                                           0.05 	(obj:0)
h-1,47                                           0.05 	(obj:0)
h-1,48                                           0.05 	(obj:0)
h-1,49                                           0.05 	(obj:0)
h-1,50                                           0.05 	(obj:0)
h-1,51                                           0.05 	(obj:0)
h-1,58                                           0.05 	(obj:0)
h-1,59                                           0.05 	(obj:0)
h-1,60                                           0.05 	(obj:0)
h-1,61                                           0.05 	(obj:0)
h-1,63                                           0.05 	(obj:0)
h-1,64                                           0.05 	(obj:0)
h-1,65                                           0.05 	(obj:0)
h-1,66                                           0.05 	(obj:0)
h-1,67                                           0.05 	(obj:0)
h-1,73                                           0.05 	(obj:0)
h-1,74                                           0.05 	(obj:0)
h-1,75                                           0.05 	(obj:0)
h-1,76                                           0.05 	(obj:0)
h-1,77                                           0.05 	(obj:0)
h-1,78                                           0.05 	(obj:0)
h-1,79                                           0.05 	(obj:0)
h-1,80                                           0.05 	(obj:0)
h-1,87                                           0.05 	(obj:0)
h-1,88                                           0.05 	(obj:0)
h-1,89                                           0.05 	(obj:0)
h-1,90                                           0.05 	(obj:0)
h-1,92                                           0.05 	(obj:0)
h-1,93                                           0.05 	(obj:0)
h-1,94                                           0.05 	(obj:0)
h-1,95                                           0.05 	(obj:0)
h-1,96                                           0.05 	(obj:0)
h-1,97                                           0.05 	(obj:0)
h-1,98                                           0.05 	(obj:0)
h-1,99                                           0.05 	(obj:0)
h-1,101                                          0.05 	(obj:0)
h-1,102                                          0.05 	(obj:0)
h-1,103                                          0.05 	(obj:0)
h-1,104                                          0.05 	(obj:0)
h-1,105                                          0.05 	(obj:0)
h-1,106                                          0.05 	(obj:0)
h-1,107                                          0.05 	(obj:0)
h-1,108                                          0.05 	(obj:0)
h-1,109                                          0.05 	(obj:0)
h-1,110                                          0.05 	(obj:0)
h-1,115                                          0.05 	(obj:0)
h-1,116                                          0.05 	(obj:0)
h-1,119                                          0.05 	(obj:0)
h-1,120                                          0.05 	(obj:0)
h-1,121                                          0.05 	(obj:0)
h-1,122                                          0.05 	(obj:0)
h-1,123                                          0.05 	(obj:0)
h-1,124                                          0.05 	(obj:0)
h-1,125                                          0.05 	(obj:0)
h-1,126                                          0.05 	(obj:0)
h-1,127                                          0.05 	(obj:0)
h-1,128                             0.199019613862038 	(obj:0)
h-1,129                                             1 	(obj:0)
h-1,130                             0.477450984716415 	(obj:0)
h-1,131                                          0.05 	(obj:0)
h-1,132                                          0.05 	(obj:0)
h-1,133                                          0.05 	(obj:0)
h-1,134                                          0.05 	(obj:0)
h-1,135                                          0.05 	(obj:0)
h-1,136                                          0.05 	(obj:0)
h-1,137                                          0.05 	(obj:0)
h-1,138                                          0.05 	(obj:0)
h-1,139                                          0.05 	(obj:0)
h-1,142                                          0.05 	(obj:0)
h-1,143                                          0.05 	(obj:0)
h-1,147                                          0.05 	(obj:0)
h-1,148                                          0.05 	(obj:0)
h-1,149                                          0.05 	(obj:0)
h-1,150                                          0.05 	(obj:0)
h-1,151                                          0.05 	(obj:0)
h-1,152                                          0.05 	(obj:0)
h-1,153                                          0.05 	(obj:0)
h-1,154                                          0.05 	(obj:0)
h-1,155                                          0.05 	(obj:0)
h-1,156                             0.391176480054855 	(obj:0)
h-1,157                                             1 	(obj:0)
h-1,158                             0.371568638086319 	(obj:0)
h-1,159                                          0.05 	(obj:0)
h-1,160                                          0.05 	(obj:0)
h-1,165                                          0.05 	(obj:0)
h-1,166                                          0.05 	(obj:0)
h-1,167                                          0.05 	(obj:0)
h-1,169                                          0.05 	(obj:0)
h-1,170                                          0.05 	(obj:0)
h-1,175                                          0.05 	(obj:0)
h-1,176                                          0.05 	(obj:0)
h-1,177                                          0.05 	(obj:0)
h-1,178                                          0.05 	(obj:0)
h-1,179                                          0.05 	(obj:0)
h-1,180                                          0.05 	(obj:0)
h-1,181                                          0.05 	(obj:0)
h-1,182                                          0.05 	(obj:0)
h-1,183                                          0.05 	(obj:0)
h-1,184                             0.579411792755127 	(obj:0)
h-1,185                             0.995098042488098 	(obj:0)
h-1,186                                          0.05 	(obj:0)
h-1,187                                          0.05 	(obj:0)
h-1,193                                          0.05 	(obj:0)
h-1,195                                          0.05 	(obj:0)
h-1,197                                          0.05 	(obj:0)
h-1,198                                          0.05 	(obj:0)
h-1,203                                          0.05 	(obj:0)
h-1,204                                          0.05 	(obj:0)
h-1,205                                          0.05 	(obj:0)
h-1,206                                          0.05 	(obj:0)
h-1,207                                          0.05 	(obj:0)
h-1,208                                          0.05 	(obj:0)
h-1,209                                          0.05 	(obj:0)
h-1,210                                          0.05 	(obj:0)
h-1,211                             0.226470592617989 	(obj:0)
h-1,212                                             1 	(obj:0)
h-1,213                             0.638235318660736 	(obj:0)
h-1,214                                          0.05 	(obj:0)
h-1,215                                          0.05 	(obj:0)
h-1,220                                          0.05 	(obj:0)
h-1,221                           0.00303502892826343 	(obj:0)
h-1,223                                          0.05 	(obj:0)
h-1,224                                          0.05 	(obj:0)
h-1,226                                          0.05 	(obj:0)
h-1,230                                          0.05 	(obj:0)
h-1,231                                          0.05 	(obj:0)
h-1,232                                          0.05 	(obj:0)
h-1,233                                          0.05 	(obj:0)
h-1,234                                          0.05 	(obj:0)
h-1,235                                          0.05 	(obj:0)
h-1,236                                          0.05 	(obj:0)
h-1,237                                          0.05 	(obj:0)
h-1,238                                          0.05 	(obj:0)
h-1,239                             0.379411774873734 	(obj:0)
h-1,240                                             1 	(obj:0)
h-1,241                              0.29705882370472 	(obj:0)
h-1,252                                          0.05 	(obj:0)
h-1,258                                          0.05 	(obj:0)
h-1,259                                          0.05 	(obj:0)
h-1,260                                          0.05 	(obj:0)
h-1,261                                          0.05 	(obj:0)
h-1,262                                          0.05 	(obj:0)
h-1,263                                          0.05 	(obj:0)
h-1,264                                          0.05 	(obj:0)
h-1,267                             0.742156875133514 	(obj:0)
h-1,268                             0.824509811401367 	(obj:0)
h-1,280                                          0.05 	(obj:0)
h-1,286                                          0.05 	(obj:0)
h-1,287                                          0.05 	(obj:0)
h-1,288                                          0.05 	(obj:0)
h-1,289                                          0.05 	(obj:0)
h-1,290                                          0.05 	(obj:0)
h-1,291                                          0.05 	(obj:0)
h-1,294                             0.075490203499794 	(obj:0)
h-1,295                             0.946078431606293 	(obj:0)
h-1,296                             0.797058832645416 	(obj:0)
h-1,298                                          0.05 	(obj:0)
h-1,308                                          0.05 	(obj:0)
h-1,309                                          0.05 	(obj:0)
h-1,310                                          0.05 	(obj:0)
h-1,313                                          0.05 	(obj:0)
h-1,314                                          0.05 	(obj:0)
h-1,315                                          0.05 	(obj:0)
h-1,316                                          0.05 	(obj:0)
h-1,317                                          0.05 	(obj:0)
h-1,318                                          0.05 	(obj:0)
h-1,319                                          0.05 	(obj:0)
h-1,320                                          0.05 	(obj:0)
h-1,322                             0.322549027204514 	(obj:0)
h-1,323                             0.946078431606293 	(obj:0)
h-1,324                             0.814705896377564 	(obj:0)
h-1,325                                          0.05 	(obj:0)
h-1,326                                          0.05 	(obj:0)
h-1,327                                          0.05 	(obj:0)
h-1,328                                          0.05 	(obj:0)
h-1,329                                          0.05 	(obj:0)
h-1,330                                          0.05 	(obj:0)
h-1,331                                          0.05 	(obj:0)
h-1,336                                          0.05 	(obj:0)
h-1,338                                          0.05 	(obj:0)
h-1,339                                          0.05 	(obj:0)
h-1,341                                          0.05 	(obj:0)
h-1,342                                          0.05 	(obj:0)
h-1,343                                          0.05 	(obj:0)
h-1,344                                          0.05 	(obj:0)
h-1,345                                          0.05 	(obj:0)
h-1,346                                          0.05 	(obj:0)
h-1,347                                          0.05 	(obj:0)
h-1,350                             0.499019634723663 	(obj:0)
h-1,351                             0.946078431606293 	(obj:0)
h-1,352                             0.351960796117783 	(obj:0)
h-1,353                                          0.05 	(obj:0)
h-1,354                                          0.05 	(obj:0)
h-1,355                                          0.05 	(obj:0)
h-1,356                                          0.05 	(obj:0)
h-1,357                                          0.05 	(obj:0)
h-1,358                                          0.05 	(obj:0)
h-1,359                                          0.05 	(obj:0)
h-1,360                                          0.05 	(obj:0)
h-1,364                                          0.05 	(obj:0)
h-1,366                                          0.05 	(obj:0)
h-1,367                                          0.05 	(obj:0)
h-1,368                                          0.05 	(obj:0)
h-1,369                                          0.05 	(obj:0)
h-1,370                                          0.05 	(obj:0)
h-1,371                                          0.05 	(obj:0)
h-1,372                                          0.05 	(obj:0)
h-1,373                                          0.05 	(obj:0)
h-1,374                                          0.05 	(obj:0)
h-1,375                                          0.05 	(obj:0)
h-1,377                             0.173529413342476 	(obj:0)
h-1,378                             0.879411768913269 	(obj:0)
h-1,379                             0.853921580314636 	(obj:0)
h-1,380                            0.0813725508749485 	(obj:0)
h-1,381                                          0.05 	(obj:0)
h-1,382                                          0.05 	(obj:0)
h-1,383                                          0.05 	(obj:0)
h-1,384                                          0.05 	(obj:0)
h-1,385                                          0.05 	(obj:0)
h-1,386                                          0.05 	(obj:0)
h-1,387                                          0.05 	(obj:0)
h-1,388                                          0.05 	(obj:0)
h-1,391                                          0.05 	(obj:0)
h-1,393                                          0.05 	(obj:0)
h-1,394                                          0.05 	(obj:0)
h-1,396                                          0.05 	(obj:0)
h-1,397                                          0.05 	(obj:0)
h-1,398                                          0.05 	(obj:0)
h-1,400                                          0.05 	(obj:0)
h-1,401                                          0.05 	(obj:0)
h-1,402                                          0.05 	(obj:0)
h-1,403                                          0.05 	(obj:0)
h-1,405                             0.436274510622025 	(obj:0)
h-1,406                                          0.95 	(obj:0)
h-1,407                             0.697058844566345 	(obj:0)
h-1,408                                          0.05 	(obj:0)
h-1,409                                          0.05 	(obj:0)
h-1,410                                          0.05 	(obj:0)
h-1,411                                          0.05 	(obj:0)
h-1,418                                          0.05 	(obj:0)
h-1,419                                          0.05 	(obj:0)
h-1,422                                          0.05 	(obj:0)
h-1,423                                          0.05 	(obj:0)
h-1,424                                          0.05 	(obj:0)
h-1,428                                          0.05 	(obj:0)
h-1,429                                          0.05 	(obj:0)
h-1,430                                          0.05 	(obj:0)
h-1,431                                          0.05 	(obj:0)
h-1,433                             0.620588254928589 	(obj:0)
h-1,434                             0.946078431606293 	(obj:0)
h-1,435                             0.367647069692612 	(obj:0)
h-1,436                                          0.05 	(obj:0)
h-1,437                                          0.05 	(obj:0)
h-1,438                                          0.05 	(obj:0)
h-1,444                                          0.05 	(obj:0)
h-1,445                                          0.05 	(obj:0)
h-1,446                                          0.05 	(obj:0)
h-1,448                                          0.05 	(obj:0)
h-1,451                                          0.05 	(obj:0)
h-1,456                                          0.05 	(obj:0)
h-1,457                                          0.05 	(obj:0)
h-1,458                                          0.05 	(obj:0)
h-1,459                                          0.05 	(obj:0)
h-1,460                             0.144117648899555 	(obj:0)
h-1,461                             0.859803926944733 	(obj:0)
h-1,462                             0.793137264251709 	(obj:0)
h-1,463                                          0.05 	(obj:0)
h-1,464                                          0.05 	(obj:0)
h-1,465                                          0.05 	(obj:0)
h-1,470                                          0.05 	(obj:0)
h-1,471                                          0.05 	(obj:0)
h-1,472                                          0.05 	(obj:0)
h-1,473                                          0.05 	(obj:0)
h-1,474                                          0.05 	(obj:0)
h-1,479                                          0.05 	(obj:0)
h-1,480                                          0.05 	(obj:0)
h-1,483                                          0.05 	(obj:0)
h-1,484                                          0.05 	(obj:0)
h-1,485                                          0.05 	(obj:0)
h-1,486                                          0.05 	(obj:0)
h-1,487                                          0.05 	(obj:0)
h-1,488                             0.520588237047195 	(obj:0)
h-1,489                             0.946078431606293 	(obj:0)
h-1,490                             0.573529434204102 	(obj:0)
h-1,493                                          0.05 	(obj:0)
h-1,494                                          0.05 	(obj:0)
h-1,498                                          0.05 	(obj:0)
h-1,499                                          0.05 	(obj:0)
h-1,500                                          0.05 	(obj:0)
h-1,501                                          0.05 	(obj:0)
h-1,502                                          0.05 	(obj:0)
h-1,504                                          0.05 	(obj:0)
h-1,505                                          0.05 	(obj:0)
h-1,507                                          0.05 	(obj:0)
h-1,508                                          0.05 	(obj:0)
h-1,513                                          0.05 	(obj:0)
h-1,514                                          0.05 	(obj:0)
h-1,515                                          0.05 	(obj:0)
h-1,516                             0.642156887054443 	(obj:0)
h-1,517                             0.946078431606293 	(obj:0)
h-1,518                             0.506862771511078 	(obj:0)
h-1,520                                          0.05 	(obj:0)
h-1,521                                          0.05 	(obj:0)
h-1,522                                          0.05 	(obj:0)
h-1,523                                          0.05 	(obj:0)
h-1,524                                          0.05 	(obj:0)
h-1,525                                          0.05 	(obj:0)
h-1,526                                          0.05 	(obj:0)
h-1,527                                          0.05 	(obj:0)
h-1,528                                          0.05 	(obj:0)
h-1,532                                          0.05 	(obj:0)
h-1,535                                          0.05 	(obj:0)
h-1,536                                          0.05 	(obj:0)
h-1,537                                          0.05 	(obj:0)
h-1,538                                          0.05 	(obj:0)
h-1,542                                          0.05 	(obj:0)
h-1,543                                          0.05 	(obj:0)
h-1,544                             0.944117653369904 	(obj:0)
h-1,545                             0.946078431606293 	(obj:0)
h-1,546                             0.208823543787003 	(obj:0)
h-1,548                                          0.05 	(obj:0)
h-1,549                                          0.05 	(obj:0)
h-1,550                                          0.05 	(obj:0)
h-1,551                                          0.05 	(obj:0)
h-1,552                                          0.05 	(obj:0)
h-1,553                                          0.05 	(obj:0)
h-1,554                                          0.05 	(obj:0)
h-1,555                                          0.05 	(obj:0)
h-1,556                                          0.05 	(obj:0)
h-1,558                                          0.05 	(obj:0)
h-1,562                                          0.05 	(obj:0)
h-1,563                                          0.05 	(obj:0)
h-1,564                                          0.05 	(obj:0)
h-1,565                                          0.05 	(obj:0)
h-1,566                                          0.05 	(obj:0)
h-1,567                                          0.05 	(obj:0)
h-1,571                             0.189215686917305 	(obj:0)
h-1,572                             0.934313726425171 	(obj:0)
h-1,573                             0.946078431606293 	(obj:0)
h-1,574                             0.208823543787003 	(obj:0)
h-1,575                                          0.05 	(obj:0)
h-1,576                                          0.05 	(obj:0)
h-1,577                                          0.05 	(obj:0)
h-1,578                                          0.05 	(obj:0)
h-1,579                                          0.05 	(obj:0)
h-1,580                                          0.05 	(obj:0)
h-1,581                                          0.05 	(obj:0)
h-1,582                                          0.05 	(obj:0)
h-1,583                                          0.05 	(obj:0)
h-1,584                                          0.05 	(obj:0)
h-1,585                                          0.05 	(obj:0)
h-1,588                                          0.05 	(obj:0)
h-1,590                                          0.05 	(obj:0)
h-1,591                                          0.05 	(obj:0)
h-1,592                                          0.05 	(obj:0)
h-1,593                                          0.05 	(obj:0)
h-1,594                                          0.05 	(obj:0)
h-1,595                                          0.05 	(obj:0)
h-1,597                                          0.05 	(obj:0)
h-1,599                             0.602941203117371 	(obj:0)
h-1,600                                             1 	(obj:0)
h-1,601                             0.853921580314636 	(obj:0)
h-1,602                            0.0617647061124444 	(obj:0)
h-1,603                                          0.05 	(obj:0)
h-1,604                                          0.05 	(obj:0)
h-1,605                                          0.05 	(obj:0)
h-1,606                                          0.05 	(obj:0)
h-1,607                                          0.05 	(obj:0)
h-1,608                                          0.05 	(obj:0)
h-1,609                                          0.05 	(obj:0)
h-1,610                                          0.05 	(obj:0)
h-1,611                                          0.05 	(obj:0)
h-1,612                                          0.05 	(obj:0)
h-1,613                                          0.05 	(obj:0)
h-1,614                                          0.05 	(obj:0)
h-1,616                                          0.05 	(obj:0)
h-1,617                                          0.05 	(obj:0)
h-1,618                                          0.05 	(obj:0)
h-1,619                                          0.05 	(obj:0)
h-1,620                                          0.05 	(obj:0)
h-1,624                                          0.05 	(obj:0)
h-1,625                                          0.05 	(obj:0)
h-1,626                            0.0892156876623631 	(obj:0)
h-1,627                             0.893137264251709 	(obj:0)
h-1,628                                             1 	(obj:0)
h-1,629                             0.524509805440903 	(obj:0)
h-1,630                                          0.05 	(obj:0)
h-1,631                                          0.05 	(obj:0)
h-1,635                                          0.05 	(obj:0)
h-1,636                                          0.05 	(obj:0)
h-1,637                                          0.05 	(obj:0)
h-1,638                                          0.05 	(obj:0)
h-1,639                                          0.05 	(obj:0)
h-1,640                                          0.05 	(obj:0)
h-1,641                                          0.05 	(obj:0)
h-1,647                                          0.05 	(obj:0)
h-1,651                                          0.05 	(obj:0)
h-1,652                                          0.05 	(obj:0)
h-1,653                                          0.05 	(obj:0)
h-1,654                            0.0696078438311815 	(obj:0)
h-1,655                             0.826470601558685 	(obj:0)
h-1,656                             0.640196096897125 	(obj:0)
h-1,657                            0.0892156876623631 	(obj:0)
h-1,658                                          0.05 	(obj:0)
h-1,662                                          0.05 	(obj:0)
h-1,663                                          0.05 	(obj:0)
h-1,664                                          0.05 	(obj:0)
h-1,665                                          0.05 	(obj:0)
h-1,666                                          0.05 	(obj:0)
h-1,667                                          0.05 	(obj:0)
h-1,668                                          0.05 	(obj:0)
h-1,669                                          0.05 	(obj:0)
h-1,675                                          0.05 	(obj:0)
h-1,676                                          0.05 	(obj:0)
h-1,677                                          0.05 	(obj:0)
h-1,678                                          0.05 	(obj:0)
h-1,679                                          0.05 	(obj:0)
h-1,680                                          0.05 	(obj:0)
h-1,681                                          0.05 	(obj:0)
h-1,682                                          0.05 	(obj:0)
h-1,683                                          0.05 	(obj:0)
h-1,684                                          0.05 	(obj:0)
h-1,685                                          0.05 	(obj:0)
h-1,686                                          0.05 	(obj:0)
h-1,687                                          0.05 	(obj:0)
h-1,688                                          0.05 	(obj:0)
h-1,689                                          0.05 	(obj:0)
h-1,690                                          0.05 	(obj:0)
h-1,691                                          0.05 	(obj:0)
h-1,692                                          0.05 	(obj:0)
h-1,693                                          0.05 	(obj:0)
h-1,694                                          0.05 	(obj:0)
h-1,695                                          0.05 	(obj:0)
h-1,696                                          0.05 	(obj:0)
h-1,697                                          0.05 	(obj:0)
h-1,698                                          0.05 	(obj:0)
h-1,703                                          0.05 	(obj:0)
h-1,704                                          0.05 	(obj:0)
h-1,705                                          0.05 	(obj:0)
h-1,706                                          0.05 	(obj:0)
h-1,707                                          0.05 	(obj:0)
h-1,708                                          0.05 	(obj:0)
h-1,709                                          0.05 	(obj:0)
h-1,710                                          0.05 	(obj:0)
h-1,711                                          0.05 	(obj:0)
h-1,712                                          0.05 	(obj:0)
h-1,713                                          0.05 	(obj:0)
h-1,714                                          0.05 	(obj:0)
h-1,715                                          0.05 	(obj:0)
h-1,716                                          0.05 	(obj:0)
h-1,717                                          0.05 	(obj:0)
h-1,718                                          0.05 	(obj:0)
h-1,719                                          0.05 	(obj:0)
h-1,720                                          0.05 	(obj:0)
h-1,721                                          0.05 	(obj:0)
h-1,722                                          0.05 	(obj:0)
h-1,723                                          0.05 	(obj:0)
h-1,724                                          0.05 	(obj:0)
h-1,725                                          0.05 	(obj:0)
h-1,726                                          0.05 	(obj:0)
h-1,731                                          0.05 	(obj:0)
h-1,732                                          0.05 	(obj:0)
h-1,733                                          0.05 	(obj:0)
h-1,734                                          0.05 	(obj:0)
h-1,735                                          0.05 	(obj:0)
h-1,736                                          0.05 	(obj:0)
h-1,737                                          0.05 	(obj:0)
h-1,738                                          0.05 	(obj:0)
h-1,739                                          0.05 	(obj:0)
h-1,740                                          0.05 	(obj:0)
h-1,741                                          0.05 	(obj:0)
h-1,742                                          0.05 	(obj:0)
h-1,743                                          0.05 	(obj:0)
h-1,744                                          0.05 	(obj:0)
h-1,745                                          0.05 	(obj:0)
h-1,746                                          0.05 	(obj:0)
h-1,747                                          0.05 	(obj:0)
h-1,748                                          0.05 	(obj:0)
h-1,749                                          0.05 	(obj:0)
h-1,750                                          0.05 	(obj:0)
h-1,751                                          0.05 	(obj:0)
h-1,752                                          0.05 	(obj:0)
h-1,753                                          0.05 	(obj:0)
h-1,760                                          0.05 	(obj:0)
h-1,761                                          0.05 	(obj:0)
h-1,762                                          0.05 	(obj:0)
h-1,763                                          0.05 	(obj:0)
h-1,764                                          0.05 	(obj:0)
h-1,765                                          0.05 	(obj:0)
h-1,769                                          0.05 	(obj:0)
h-1,770                                          0.05 	(obj:0)
h-1,776                                          0.05 	(obj:0)
h-1,777                                          0.05 	(obj:0)
z0,0                                 5.25946157681028 	(obj:0)
a0,0                                 5.25946157681028 	(obj:0)
z0,1                                 1.57007601653082 	(obj:0)
a0,1                                 1.57007601653082 	(obj:0)
z0,2                                0.961285905351894 	(obj:0)
a0,2                                0.961285905351894 	(obj:0)
z0,3                                0.989622296915435 	(obj:0)
a0,3                                0.989622296915435 	(obj:0)
z0,4                                 2.30343214217677 	(obj:0)
a0,4                                 2.30343214217677 	(obj:0)
z1,0                                 3.02771796960398 	(obj:0)
a1,0                                 3.02771796960398 	(obj:0)
z1,1                               -0.339685720209659 	(obj:0)
z1,2                                -3.51734625379907 	(obj:0)
z1,3                                 3.89600209600342 	(obj:0)
a1,3                                 3.89600209600342 	(obj:0)
z1,4                                0.231407340046152 	(obj:0)
a1,4                                0.231407340046152 	(obj:0)
z2,0                                 3.09633438131925 	(obj:0)
a2,0                                 3.09633438131925 	(obj:0)
z2,1                                 3.55111503896343 	(obj:0)
a2,1                                 3.55111503896343 	(obj:0)
z2,2                                 4.15262276542017 	(obj:0)
a2,2                                 4.15262276542017 	(obj:0)
z2,3                                 4.25001787843759 	(obj:0)
a2,3                                 4.25001787843759 	(obj:0)
z2,4                                 2.22668582360835 	(obj:0)
a2,4                                 2.22668582360835 	(obj:0)
z3,0                                -5.71086058497622 	(obj:0)
z3,2                                 3.39607760564811 	(obj:0)
a3,2                                 3.39607760564811 	(obj:1)
z3,3                                 1.54822932055933 	(obj:0)
a3,3                                 1.54822932055933 	(obj:0)
z3,4                                -3.56391005333422 	(obj:0)
z3,5                                  -2.482128539895 	(obj:0)
z3,7                                0.483838683278332 	(obj:0)
a3,7                                0.483838683278332 	(obj:0)
z3,8                                 0.82770990737982 	(obj:0)
a3,8                                 0.82770990737982 	(obj:0)
z3,9                                -3.99742391718003 	(obj:0)
